15
45
789
948
667
761
697
905
835
879
780
774
721
798
653
866
1011
74	74
432	432
321	321
392	392
79	79
543	543
507	507
949	949
580	580
331	331
716	716
715	715
549	549
598	598
485	485
770	770
134	134
938	938
805	805
333	333
132	132
892	892
802	802
641	641
255	255
483	483
769	769
11	11
359	359
808	808
697	697
899	899
121	121
985	985
928	928
741	741
362	362
980	980
474	474
620	620
115	115
377	377
443	443
339	339
684	684
